* ENCODING=ISO-8859-1
NAME          CPLEX
ROWS
 N  obj1    
 G  c1      
 G  c2      
 G  c3      
 G  c4      
 G  c5      
 G  c6      
 G  c7      
 G  c8      
 G  c9      
 G  c10     
 G  c11     
 G  c12     
 G  c13     
 G  c14     
 G  c15     
 G  c16     
 G  c17     
 G  c18     
 G  c19     
 G  c20     
 G  c21     
 G  c22     
 G  c23     
 G  c24     
 G  c25     
 G  c26     
 G  c27     
 G  c28     
 G  c29     
 G  c30     
 G  c31     
 G  c32     
 G  c33     
 G  c34     
 G  c35     
COLUMNS
    MARK0000  'MARKER'                 'INTORG'
    x1        obj1                            1
    x1        c12                           997
    x1        c13                           792
    x1        c22                           784
    x1        c26                           357
    x1        c32                           763
    x2        obj1                            1
    x2        c2                            149
    x2        c6                            739
    x2        c15                           769
    x2        c19                           418
    x2        c35                           968
    x3        obj1                            1
    x3        c10                           876
    x3        c20                           319
    x3        c33                           165
    x3        c34                           982
    x4        obj1                            1
    x4        c24                           618
    x4        c33                           813
    x5        obj1                            1
    x5        c1                            383
    x5        c25                           790
    x5        c26                           368
    x5        c29                           713
    x6        obj1                            1
    x6        c1                            223
    x6        c7                            936
    x6        c10                           878
    x6        c18                           587
    x6        c22                           950
    x6        c23                           108
    x7        obj1                            1
    x7        c10                           250
    x8        obj1                            1
    x8        c11                           773
    x8        c22                           772
    x8        c23                           252
    x8        c35                           137
    x9        obj1                            1
    x9        c30                           512
    x10       obj1                            1
    x10       c5                            625
    x10       c20                           294
    x10       c26                           662
    x10       c32                           830
    x11       obj1                            1
    x11       c2                            294
    x11       c26                           946
    x11       c34                           934
    x12       obj1                            1
    x12       c8                            380
    x12       c9                            447
    x12       c15                           563
    x13       obj1                            1
    x13       c3                            682
    x13       c11                           451
    x13       c14                           869
    x13       c27                           215
    x13       c34                           636
    x14       obj1                            1
    x14       c17                           585
    x14       c18                           296
    x15       obj1                            1
    x16       obj1                            1
    x16       c2                            307
    x16       c4                            895
    x16       c6                            217
    x16       c9                            872
    x16       c11                           306
    x16       c29                           447
    x16       c31                           287
    x16       c34                           240
    x16       c35                           939
    x17       obj1                            1
    x17       c3                            687
    x17       c10                           363
    x17       c11                           678
    x17       c19                           714
    x17       c30                           331
    x17       c32                           670
    x18       obj1                            1
    x18       c4                            669
    x18       c6                            943
    x18       c9                            688
    x18       c13                           584
    x18       c22                           598
    x18       c24                           478
    x19       obj1                            1
    x19       c9                            214
    x19       c28                           734
    x19       c29                           659
    x20       obj1                            1
    x20       c10                           234
    x20       c15                           317
    x20       c17                           208
    x21       obj1                            1
    x21       c24                           718
    x21       c33                           687
    x22       obj1                            1
    x22       c15                           944
    x23       obj1                            1
    x23       c5                            118
    x23       c12                           458
    x23       c31                           585
    x24       obj1                            1
    x24       c9                            237
    x24       c29                           723
    x25       obj1                            1
    x25       c10                           401
    x25       c15                           893
    x25       c16                           269
    x25       c21                           971
    x26       obj1                            1
    x26       c29                           997
    x27       obj1                            1
    x27       c14                           214
    x27       c21                           127
    x27       c27                           846
    x27       c31                           547
    x28       obj1                            1
    x28       c5                            819
    x29       obj1                            1
    x29       c17                           609
    x29       c19                           877
    x29       c35                           549
    x30       obj1                            1
    x30       c1                            667
    x30       c8                            262
    x30       c11                           154
    x30       c17                           444
    x30       c18                           843
    x30       c27                           999
    x31       obj1                            1
    x31       c21                           919
    x32       obj1                            1
    x32       c3                            611
    x32       c29                           328
    x32       c32                           806
    x33       obj1                            1
    x33       c30                           356
    x33       c32                           583
    x34       obj1                            1
    x34       c7                            220
    x34       c19                           468
    x34       c21                           283
    x34       c33                           583
    x35       obj1                            1
    x35       c3                            921
    x35       c4                            570
    x35       c21                           304
    x36       obj1                            1
    x36       c7                            511
    x36       c14                           277
    x36       c18                           639
    x37       obj1                            1
    x37       c3                            882
    x37       c6                            351
    x37       c18                           397
    x38       obj1                            1
    x38       c31                           873
    x39       obj1                            1
    x39       c9                            634
    x39       c10                           263
    x39       c20                           716
    x39       c22                           783
    x39       c23                           793
    x39       c24                           612
    x40       obj1                            1
    x40       c19                           237
    x40       c28                           140
    x40       c30                           475
    x40       c32                           871
    x41       obj1                            1
    x41       c13                           781
    x41       c22                           595
    x41       c26                           391
    x41       c32                           620
    x41       c35                           125
    x42       obj1                            1
    x42       c19                           566
    x42       c31                           261
    x43       obj1                            1
    x43       c9                            752
    x43       c10                           272
    x43       c23                           446
    x43       c33                           116
    x44       obj1                            1
    x44       c21                           585
    x44       c31                           596
    x45       obj1                            1
    x45       c4                            360
    x45       c8                            277
    x45       c15                           480
    x46       obj1                            1
    x46       c10                           698
    x46       c11                           458
    x46       c18                           362
    x46       c24                           537
    x46       c25                           351
    x47       obj1                            1
    x48       obj1                            1
    x48       c5                            946
    x48       c19                           434
    x48       c20                           433
    x48       c34                           568
    x49       obj1                            1
    x49       c2                            795
    x49       c3                            706
    x49       c23                           420
    x50       obj1                            1
    x50       c3                            436
    x50       c13                           826
    x50       c17                           339
    x50       c19                           351
    x50       c20                           261
    x50       c32                           700
    x51       obj1                            1
    x51       c9                            357
    x51       c21                           735
    x51       c23                           337
    x51       c27                           969
    x52       obj1                            1
    x52       c16                           380
    x52       c26                           333
    x53       obj1                            1
    x53       c8                            389
    x54       obj1                            1
    x54       c8                            123
    x54       c10                           684
    x54       c12                           173
    x54       c16                           372
    x54       c17                           784
    x55       obj1                            1
    x55       c7                            662
    x55       c11                           656
    x55       c22                           805
    x55       c35                           174
    x56       obj1                            1
    x56       c5                            543
    x56       c21                           719
    x57       obj1                            1
    x57       c7                            897
    x57       c11                           126
    x57       c21                           474
    x57       c24                           494
    x57       c27                           596
    x57       c29                           825
    x57       c34                           888
    x58       obj1                            1
    x58       c3                            737
    x58       c7                            800
    x58       c15                           442
    x58       c16                           744
    x59       obj1                            1
    x59       c8                            252
    x59       c15                           726
    x59       c34                           859
    x60       obj1                            1
    x60       c11                           509
    x60       c14                           220
    x60       c24                           974
    x60       c27                           634
    x61       obj1                            1
    x61       c22                           828
    x61       c33                           904
    x62       obj1                            1
    x62       c9                            292
    x62       c27                           900
    x63       obj1                            1
    x63       c12                           803
    x63       c15                           585
    x63       c25                           536
    x63       c28                           488
    x64       obj1                            1
    x64       c5                            149
    x65       obj1                            1
    x65       c9                            396
    x66       obj1                            1
    x66       c20                           493
    x67       obj1                            1
    x67       c1                            359
    x67       c14                           795
    x67       c22                           423
    x67       c25                           335
    x67       c29                           282
    x67       c30                           599
    x67       c31                           833
    x68       obj1                            1
    x68       c16                           296
    x68       c24                           505
    x68       c30                           345
    x68       c32                           479
    x69       obj1                            1
    x69       c22                           821
    x69       c23                           234
    x69       c29                           758
    x70       obj1                            1
    x70       c5                            558
    x70       c28                           339
    x70       c30                           815
    MARK0001  'MARKER'                 'INTEND'
RHS
    rhs       c1                            816
    rhs       c2                            773
    rhs       c3                           2831
    rhs       c4                           1247
    rhs       c5                           1879
    rhs       c6                           1125
    rhs       c7                           2013
    rhs       c8                            842
    rhs       c9                           2445
    rhs       c10                          2460
    rhs       c11                          2056
    rhs       c12                          1216
    rhs       c13                          1492
    rhs       c14                          1188
    rhs       c15                          2860
    rhs       c16                          1031
    rhs       c17                          1485
    rhs       c18                          1562
    rhs       c19                          2033
    rhs       c20                          1258
    rhs       c21                          2559
    rhs       c22                          3680
    rhs       c23                          1295
    rhs       c24                          2468
    rhs       c25                          1006
    rhs       c26                          1529
    rhs       c27                          2580
    rhs       c28                           851
    rhs       c29                          2866
    rhs       c30                          1717
    rhs       c31                          1991
    rhs       c32                          3161
    rhs       c33                          1634
    rhs       c34                          2554
    rhs       c35                          1446
BOUNDS
 LI bnd       x1        0
 LI bnd       x2        0
 LI bnd       x3        0
 LI bnd       x4        0
 LI bnd       x5        0
 LI bnd       x6        0
 LI bnd       x7        0
 LI bnd       x8        0
 LI bnd       x9        0
 LI bnd       x10       0
 LI bnd       x11       0
 LI bnd       x12       0
 LI bnd       x13       0
 LI bnd       x14       0
 LI bnd       x15       0
 LI bnd       x16       0
 LI bnd       x17       0
 LI bnd       x18       0
 LI bnd       x19       0
 LI bnd       x20       0
 LI bnd       x21       0
 LI bnd       x22       0
 LI bnd       x23       0
 LI bnd       x24       0
 LI bnd       x25       0
 LI bnd       x26       0
 LI bnd       x27       0
 LI bnd       x28       0
 LI bnd       x29       0
 LI bnd       x30       0
 LI bnd       x31       0
 LI bnd       x32       0
 LI bnd       x33       0
 LI bnd       x34       0
 LI bnd       x35       0
 LI bnd       x36       0
 LI bnd       x37       0
 LI bnd       x38       0
 LI bnd       x39       0
 LI bnd       x40       0
 LI bnd       x41       0
 LI bnd       x42       0
 LI bnd       x43       0
 LI bnd       x44       0
 LI bnd       x45       0
 LI bnd       x46       0
 LI bnd       x47       0
 LI bnd       x48       0
 LI bnd       x49       0
 LI bnd       x50       0
 LI bnd       x51       0
 LI bnd       x52       0
 LI bnd       x53       0
 LI bnd       x54       0
 LI bnd       x55       0
 LI bnd       x56       0
 LI bnd       x57       0
 LI bnd       x58       0
 LI bnd       x59       0
 LI bnd       x60       0
 LI bnd       x61       0
 LI bnd       x62       0
 LI bnd       x63       0
 LI bnd       x64       0
 LI bnd       x65       0
 LI bnd       x66       0
 LI bnd       x67       0
 LI bnd       x68       0
 LI bnd       x69       0
 LI bnd       x70       0
ENDATA
